NAME : speedup35
TYPE : TSP
DIMENSION : 35
EDGE_WEIGHT_TYPE : EUC_2D
NODE_COORD_SECTION
1 407 74
2 342 243
3 296 459
4 231 317
5 120 420
6 72 161
7 176 282
8 40 278
9 494 225
10 408 401
11 494 347
12 430 280
13 65 96
14 315 385
15 125 19
16 266 17
17 171 176
18 204 429
19 158 282
20 44 189
21 341 45
22 57 344
23 461 260
24 26 328
25 9 65
26 358 59
27 31 321
28 185 208
29 460 427
30 43 360
31 71 306
32 448 28
33 182 482
34 376 255
35 158 73
EOF
